letting n =  10
letting blocks =  [[1, 1], [1, 3], [1, 4], [1, 5], [1, 6], [1, 10], [2, 4], [2, 5], [2, 6], [2, 7], [2, 8], [2, 9], [3, 1], [3, 3], [3, 4], [3, 7], [3, 8], [3, 10], [4, 2], [4, 6], [4, 7], [4, 9], [5, 2], [5, 5], [5, 6], [5, 10], [6, 1], [6, 4], [6, 6], [6, 7], [6, 8], [6, 10], [7, 3], [7, 4], [7, 9], [8, 1], [8, 2], [8, 3], [8, 7], [8, 8], [9, 1], [9, 3], [9, 7], [9, 8], [9, 9], [9, 10], [10, 1], [10, 2], [10, 4], [10, 5], [10, 6], [10, 9]]
